Version identifier: 12.10.0.0 | 2019-11-26 | 843d4de
CPXPARAM_WorkMem                                 16384
CPXPARAM_MIP_Limits_TreeMemory                   24576
Tried aggregator 2 times.
MIP Presolve eliminated 4 rows and 0 columns.
MIP Presolve added 8 rows and 0 columns.
Aggregator did 30 substitutions.
Reduced MIP has 46 rows, 50 columns, and 208 nonzeros.
Reduced MIP has 50 binaries, 0 generals, 0 SOSs, and 0 indicators.
Presolve time = 0,00 sec. (0,39 ticks)
Found incumbent of value 107,000000 after 0,00 sec. (0,46 ticks)
Probing time = 0,00 sec. (0,14 ticks)
Tried aggregator 1 time.
Detecting symmetries...
Reduced MIP has 46 rows, 50 columns, and 208 nonzeros.
Reduced MIP has 50 binaries, 0 generals, 0 SOSs, and 0 indicators.
Presolve time = 0,00 sec. (0,16 ticks)
Probing time = 0,00 sec. (0,14 ticks)
Clique table members: 204.
MIP emphasis: balance optimality and feasibility.
MIP search method: dynamic search.
Parallel mode: deterministic, using up to 16 threads.
Root relaxation solution time = 0,00 sec. (0,06 ticks)

        Nodes                                         Cuts/
   Node  Left     Objective  IInf  Best Integer    Best Bound    ItCnt     Gap

*     0+    0                          107,0000        0,0000           100,00%
*     0+    0                          105,0000        0,0000           100,00%
*     0+    0                           87,0000        0,0000           100,00%
*     0+    0                           85,0000        0,0000           100,00%
      0     0       72,0000    18       85,0000       72,0000        9   15,29%
      0     0       72,0000    18       85,0000       Cuts: 5       15   15,29%
      0     0       72,0000    18       85,0000      Cuts: 13       27   15,29%
      0     0       72,0000    18       85,0000     Cuts: 111       49   15,29%
      0     0        cutoff             85,0000       85,0000       49    0,00%
Elapsed time = 0,01 sec. (3,43 ticks, tree = 0,01 MB, solutions = 4)

Cover cuts applied:  1

Root node processing (before b&c):
  Real time             =    0,01 sec. (3,43 ticks)
Parallel b&c, 16 threads:
  Real time             =    0,00 sec. (0,00 ticks)
  Sync time (average)   =    0,00 sec.
  Wait time (average)   =    0,00 sec.
                          ------------
Total (root+branch&cut) =    0,01 sec. (3,43 ticks)
